50
48,49,22,35,27,12,37,34,24 
2 8 8 
2 21 7 
2 32 2 
4 5 8 
7 29 7 
11 3 7 
14 31 9 
17 6 7 
17 42 6 
18 19 2 
18 28 1 
18 43 1 
19 2 5 
20 7 3 
20 14 7 
20 16 8 
20 27 2 
20 38 8 
20 40 10 
20 48 2 
21 12 7 
21 17 5 
21 18 10 
22 10 6 
22 20 2 
22 21 2 
22 40 8 
22 43 7 
25 34 4 
27 34 4 
28 5 8 
28 24 5 
29 9 5 
29 33 7 
30 5 4 
30 15 1 
30 16 2 
33 35 3 
34 20 10 
34 30 2 
36 2 8 
36 4 6 
36 11 9 
36 39 7 
36 49 9 
36 50 10 
40 15 10 
40 23 3 
41 1 5 
41 22 8 
41 25 5 
41 36 2 
41 44 7 
41 47 7 
42 6 9 
42 46 10 
44 24 8 
44 39 3 
45 26 6 
45 28 1 
47 37 3 
47 45 10 
50 13 1